\ Model TSP
\ LP format - for model browsing. Use MPS format to capture full model detail.
Minimize
  3.6 x01 + 5.1 x02 + 10 x03 + 15.3 x04 + 20 x05 + 16 x06 + 14.2 x07
   + 23 x08 + 26.4 x09 + 3.6 x10 + 3.6 x12 + 6.4 x13 + 12.1 x14 + 18.1 x15
   + 13.2 x16 + 10.6 x17 + 19.7 x18 + 23 x19 + 3.6 x110 + 5.1 x20 + 3.6 x21
   + 7.1 x23 + 10.6 x24 + 15 x25 + 15.8 x26 + 10.8 x27 + 18.4 x28
   + 21.9 x29 + 5.1 x210 + 10 x30 + 6.4 x31 + 7.1 x32 + 7 x34 + 15.7 x35
   + 10 x36 + 4.2 x37 + 13.9 x38 + 17 x39 + 10 x310 + 15.3 x40 + 12.1 x41
   + 10.6 x42 + 7 x43 + 9.9 x45 + 15.3 x46 + 5 x47 + 7.8 x48 + 11.3 x49
   + 15.3 x410 + 20 x50 + 18.1 x51 + 15 x52 + 15.7 x53 + 9.9 x54 + 25 x56
   + 14.9 x57 + 12 x58 + 15 x59 + 20 x510 + 16 x60 + 13.2 x61 + 15.8 x62
   + 10 x63 + 15.3 x64 + 25 x65 + 10.3 x67 + 19.2 x68 + 21 x69 + 16 x610
   + 14.2 x70 + 10.6 x71 + 10.8 x72 + 4.2 x73 + 5 x74 + 14.9 x75 + 10.3 x76
   + 10.2 x78 + 13 x79 + 14.2 x710 + 23 x80 + 19.7 x81 + 18.4 x82
   + 13.9 x83 + 7.8 x84 + 12 x85 + 19.2 x86 + 10.2 x87 + 3.6 x89 + 23 x810
   + 26.4 x90 + 23 x91 + 21.9 x92 + 17 x93 + 11.3 x94 + 15 x95 + 21 x96
   + 13 x97 + 3.6 x98 + 26.4 x910 + 3.6 x101 + 5.1 x102 + 10 x103
   + 15.3 x104 + 20 x105 + 16 x106 + 14.2 x107 + 23 x108 + 26.4 x109
Subject To
 R0: x01 + x02 + x03 + x04 + x05 + x06 + x07 + x08 + x09 + x010 = 1
 R1: x11 + x12 + x13 + x14 + x15 + x16 + x17 + x18 + x19 + x110 = 1
 R2: x01 + x11 + x21 + x31 + x41 + x51 + x61 + x71 + x81 + x91 = 1
 R3: x21 + x22 + x23 + x24 + x25 + x26 + x27 + x28 + x29 + x210 = 1
 R4: x02 + x12 + x22 + x32 + x42 + x52 + x62 + x72 + x82 + x92 = 1
 R5: x31 + x32 + x33 + x34 + x35 + x36 + x37 + x38 + x39 + x310 = 1
 R6: x03 + x13 + x23 + x33 + x43 + x53 + x63 + x73 + x83 + x93 = 1
 R7: x41 + x42 + x43 + x44 + x45 + x46 + x47 + x48 + x49 + x410 = 1
 R8: x04 + x14 + x24 + x34 + x44 + x54 + x64 + x74 + x84 + x94 = 1
 R9: x51 + x52 + x53 + x54 + x55 + x56 + x57 + x58 + x59 + x510 = 1
 R10: x05 + x15 + x25 + x35 + x45 + x55 + x65 + x75 + x85 + x95 = 1
 R11: x61 + x62 + x63 + x64 + x65 + x66 + x67 + x68 + x69 + x610 = 1
 R12: x06 + x16 + x26 + x36 + x46 + x56 + x66 + x76 + x86 + x96 = 1
 R13: x71 + x72 + x73 + x74 + x75 + x76 + x77 + x78 + x79 + x710 = 1
 R14: x07 + x17 + x27 + x37 + x47 + x57 + x67 + x77 + x87 + x97 = 1
 R15: x81 + x82 + x83 + x84 + x85 + x86 + x87 + x88 + x89 + x810 = 1
 R16: x08 + x18 + x28 + x38 + x48 + x58 + x68 + x78 + x88 + x98 = 1
 R17: x91 + x92 + x93 + x94 + x95 + x96 + x97 + x98 + x99 + x910 = 1
 R18: x09 + x19 + x29 + x39 + x49 + x59 + x69 + x79 + x89 + x99 = 1
 R19: x010 + x110 + x210 + x310 + x410 + x510 + x610 + x710 + x810 + x910
   = 1
 R20: - 15 x00 >= -14
 R21: x00 = 0
 R22: - u0 - 15 x01 + u1 >= -14
 R23: - u0 - 15 x02 + u2 >= -14
 R24: - u0 - 15 x03 + u3 >= -14
 R25: - u0 - 15 x04 + u4 >= -14
 R26: - u0 - 15 x05 + u5 >= -14
 R27: - u0 - 15 x06 + u6 >= -14
 R28: - u0 - 15 x07 + u7 >= -14
 R29: - u0 - 15 x08 + u8 >= -14
 R30: - u0 - 15 x09 + u9 >= -14
 R31: - u0 - 15 x010 + u10 >= -14
 R32: u0 - u1 - 15 x10 >= -14
 R33: - 15 x11 >= -14
 R34: x11 = 0
 R35: - u1 - 15 x12 + u2 >= -14
 R36: - u1 - 15 x13 + u3 >= -14
 R37: - u1 - 15 x14 + u4 >= -14
 R38: - u1 - 15 x15 + u5 >= -14
 R39: - u1 - 15 x16 + u6 >= -14
 R40: - u1 - 15 x17 + u7 >= -14
 R41: - u1 - 15 x18 + u8 >= -14
 R42: - u1 - 15 x19 + u9 >= -14
 R43: - u1 - 15 x110 + u10 >= -14
 R44: u0 - u2 - 15 x20 >= -14
 R45: u1 - u2 - 15 x21 >= -14
 R46: - 15 x22 >= -14
 R47: x22 = 0
 R48: - u2 - 15 x23 + u3 >= -14
 R49: - u2 - 15 x24 + u4 >= -14
 R50: - u2 - 15 x25 + u5 >= -14
 R51: - u2 - 15 x26 + u6 >= -14
 R52: - u2 - 15 x27 + u7 >= -14
 R53: - u2 - 15 x28 + u8 >= -14
 R54: - u2 - 15 x29 + u9 >= -14
 R55: - u2 - 15 x210 + u10 >= -14
 R56: u0 - u3 - 15 x30 >= -14
 R57: u1 - u3 - 15 x31 >= -14
 R58: u2 - u3 - 15 x32 >= -14
 R59: - 15 x33 >= -14
 R60: x33 = 0
 R61: - u3 - 15 x34 + u4 >= -14
 R62: - u3 - 15 x35 + u5 >= -14
 R63: - u3 - 15 x36 + u6 >= -14
 R64: - u3 - 15 x37 + u7 >= -14
 R65: - u3 - 15 x38 + u8 >= -14
 R66: - u3 - 15 x39 + u9 >= -14
 R67: - u3 - 15 x310 + u10 >= -14
 R68: u0 - u4 - 15 x40 >= -14
 R69: u1 - u4 - 15 x41 >= -14
 R70: u2 - u4 - 15 x42 >= -14
 R71: u3 - u4 - 15 x43 >= -14
 R72: - 15 x44 >= -14
 R73: x44 = 0
 R74: - u4 - 15 x45 + u5 >= -14
 R75: - u4 - 15 x46 + u6 >= -14
 R76: - u4 - 15 x47 + u7 >= -14
 R77: - u4 - 15 x48 + u8 >= -14
 R78: - u4 - 15 x49 + u9 >= -14
 R79: - u4 - 15 x410 + u10 >= -14
 R80: u0 - u5 - 15 x50 >= -14
 R81: u1 - u5 - 15 x51 >= -14
 R82: u2 - u5 - 15 x52 >= -14
 R83: u3 - u5 - 15 x53 >= -14
 R84: u4 - u5 - 15 x54 >= -14
 R85: - 15 x55 >= -14
 R86: x55 = 0
 R87: - u5 - 15 x56 + u6 >= -14
 R88: - u5 - 15 x57 + u7 >= -14
 R89: - u5 - 15 x58 + u8 >= -14
 R90: - u5 - 15 x59 + u9 >= -14
 R91: - u5 - 15 x510 + u10 >= -14
 R92: u0 - u6 - 15 x60 >= -14
 R93: u1 - u6 - 15 x61 >= -14
 R94: u2 - u6 - 15 x62 >= -14
 R95: u3 - u6 - 15 x63 >= -14
 R96: u4 - u6 - 15 x64 >= -14
 R97: u5 - u6 - 15 x65 >= -14
 R98: - 15 x66 >= -14
 R99: x66 = 0
 R100: - u6 - 15 x67 + u7 >= -14
 R101: - u6 - 15 x68 + u8 >= -14
 R102: - u6 - 15 x69 + u9 >= -14
 R103: - u6 - 15 x610 + u10 >= -14
 R104: u0 - u7 - 15 x70 >= -14
 R105: u1 - u7 - 15 x71 >= -14
 R106: u2 - u7 - 15 x72 >= -14
 R107: u3 - u7 - 15 x73 >= -14
 R108: u4 - u7 - 15 x74 >= -14
 R109: u5 - u7 - 15 x75 >= -14
 R110: u6 - u7 - 15 x76 >= -14
 R111: - 15 x77 >= -14
 R112: x77 = 0
 R113: - u7 - 15 x78 + u8 >= -14
 R114: - u7 - 15 x79 + u9 >= -14
 R115: - u7 - 15 x710 + u10 >= -14
 R116: u0 - u8 - 15 x80 >= -14
 R117: u1 - u8 - 15 x81 >= -14
 R118: u2 - u8 - 15 x82 >= -14
 R119: u3 - u8 - 15 x83 >= -14
 R120: u4 - u8 - 15 x84 >= -14
 R121: u5 - u8 - 15 x85 >= -14
 R122: u6 - u8 - 15 x86 >= -14
 R123: u7 - u8 - 15 x87 >= -14
 R124: - 15 x88 >= -14
 R125: x88 = 0
 R126: - u8 - 15 x89 + u9 >= -14
 R127: - u8 - 15 x810 + u10 >= -14
 R128: u0 - u9 - 15 x90 >= -14
 R129: u1 - u9 - 15 x91 >= -14
 R130: u2 - u9 - 15 x92 >= -14
 R131: u3 - u9 - 15 x93 >= -14
 R132: u4 - u9 - 15 x94 >= -14
 R133: u5 - u9 - 15 x95 >= -14
 R134: u6 - u9 - 15 x96 >= -14
 R135: u7 - u9 - 15 x97 >= -14
 R136: u8 - u9 - 15 x98 >= -14
 R137: - 15 x99 >= -14
 R138: x99 = 0
 R139: - u9 - 15 x910 + u10 >= -14
 R140: u0 - u10 - 15 x100 >= -14
 R141: u1 - u10 - 15 x101 >= -14
 R142: u2 - u10 - 15 x102 >= -14
 R143: u3 - u10 - 15 x103 >= -14
 R144: u4 - u10 - 15 x104 >= -14
 R145: u5 - u10 - 15 x105 >= -14
 R146: u6 - u10 - 15 x106 >= -14
 R147: u7 - u10 - 15 x107 >= -14
 R148: u8 - u10 - 15 x108 >= -14
 R149: u9 - u10 - 15 x109 >= -14
 R150: - 15 x1010 >= -14
 R151: x1010 = 0
 R152: x010 = 0
Bounds
Binaries
 x00 x01 x02 x03 x04 x05 x06 x07 x08 x09 x010 x10 x11 x12 x13 x14 x15 x16
 x17 x18 x19 x110 x20 x21 x22 x23 x24 x25 x26 x27 x28 x29 x210 x30 x31 x32
 x33 x34 x35 x36 x37 x38 x39 x310 x40 x41 x42 x43 x44 x45 x46 x47 x48 x49
 x410 x50 x51 x52 x53 x54 x55 x56 x57 x58 x59 x510 x60 x61 x62 x63 x64 x65
 x66 x67 x68 x69 x610 x70 x71 x72 x73 x74 x75 x76 x77 x78 x79 x710 x80 x81
 x82 x83 x84 x85 x86 x87 x88 x89 x810 x90 x91 x92 x93 x94 x95 x96 x97 x98
 x99 x910 x100 x101 x102 x103 x104 x105 x106 x107 x108 x109 x1010
Generals
 u0 u1 u2 u3 u4 u5 u6 u7 u8 u9 u10
End
